(set-logic UFDT)
(declare-datatypes ((nat 0)) (((zero) (s (s0 nat)))))
(declare-fun add (nat nat) nat)
(injective add (true true))
(declare-fun leq (nat nat) Bool)
(assert (forall ((y nat)) (= (add zero y) y)))
(assert (forall ((x nat) (y nat)) (= (add (s x) y) (s (add x y)))))
(assert (forall ((y nat)) (leq zero y)))
(assert (forall ((x nat)) (not (leq (s x) zero))))
(assert (forall ((x nat) (y nat)) (= (leq (s x) (s y)) (leq x y))))
(assert (not (forall ((v0 nat) (v1 nat) (v2 nat) (v3 nat) (v4 nat) (v5 nat) (v6 nat)) (= (add (add (add (s (add v5 (s v3))) (s (add v2 (s v3)))) (s (s (add v0 (add v6 (s v4)))))) (add (add (s zero) v1) v6)) (add (add (add v0 (s v3)) v3) (add (s (s (add v2 (s v6)))) (add (add (add v4 (s (add v5 v1))) (s zero)) (s (s v6)))))))))
(check-sat)
